(declare-fun ExpandObjSwitcher () Real)
(declare-fun Constructed_Argument_t () String)
(declare-fun Constructed_Argument_2_t () String)
(declare-fun CreateAsClass () Bool)
(declare-fun Constructed_Argument_2_elements_decoder_0_t () String)
(declare-fun Constructed_Argument_2_elements_decoder_1_t () String)
(declare-fun Constructed_Argument_2_elements_charset_2_t () String)
(declare-fun Constructed_Argument_2_elements_charset_3_t () String)
(declare-fun Constructed_Argument_2_elements_allowDots_4_t () String)
(declare-fun Constructed_Argument_2_elements_allowDots_5_t () String)
(declare-fun Constructed_Argument_2_elements_allowDots_5_Array_Length () Int)
(declare-fun Constructed_Argument_2_elements_allowPrototypes_6_t () String)
(declare-fun Constructed_Argument_2_elements_arrayLimit_7_t () String)
(declare-fun Constructed_Argument_2_elements_charsetSentinel_8_t () String)
(define-funs-rec ( ( str.repeat ((x!1 String) (x!2 Int)) String)
                   ( str.whiteLeft ((x!1 String) (x!2 Int)) Int)
                   ( str.whiteRight ((x!1 String) (x!2 Int)) Int))
                 ( (ite (<= x!2 0)
                        ""
                        (str.++ x!1 ((_ str.repeat 0) x!1 (- x!2 1))))
                   (ite (= (str.at x!1 x!2) " ")
                        ((_ str.whiteLeft 0) x!1 (+ x!2 1))
                        x!2)
                   (ite (= (str.at x!1 x!2) " ")
                        ((_ str.whiteRight 0) x!1 (- x!2 1))
                        x!2)))
(assert (= ExpandObjSwitcher 0.0))
(assert (not (= Constructed_Argument_t "string")))
(assert (not (= Constructed_Argument_t "number")))
(assert (not (= Constructed_Argument_t "boolean")))
(assert (not (= Constructed_Argument_t "object")))
(assert (not (= Constructed_Argument_t "array_number")))
(assert (not (= Constructed_Argument_t "array_string")))
(assert (not (= Constructed_Argument_t "array_bool")))
(assert (not (= Constructed_Argument_t "null")))
(assert (= Constructed_Argument_2_t "object"))
(assert (not CreateAsClass))
(assert (not (= Constructed_Argument_2_elements_decoder_0_t "string")))
(assert (not (= Constructed_Argument_2_elements_decoder_0_t "number")))
(assert (not (= Constructed_Argument_2_elements_decoder_0_t "boolean")))
(assert (not (= Constructed_Argument_2_elements_decoder_0_t "object")))
(assert (not (= Constructed_Argument_2_elements_decoder_0_t "array_number")))
(assert (not (= Constructed_Argument_2_elements_decoder_0_t "array_string")))
(assert (not (= Constructed_Argument_2_elements_decoder_0_t "array_bool")))
(assert (not (= Constructed_Argument_2_elements_decoder_0_t "null")))
(assert (not (= Constructed_Argument_2_elements_decoder_1_t "string")))
(assert (not (= Constructed_Argument_2_elements_decoder_1_t "number")))
(assert (not (= Constructed_Argument_2_elements_decoder_1_t "boolean")))
(assert (not (= Constructed_Argument_2_elements_decoder_1_t "object")))
(assert (not (= Constructed_Argument_2_elements_decoder_1_t "array_number")))
(assert (not (= Constructed_Argument_2_elements_decoder_1_t "array_string")))
(assert (not (= Constructed_Argument_2_elements_decoder_1_t "array_bool")))
(assert (not (= Constructed_Argument_2_elements_decoder_1_t "null")))
(assert (not (= Constructed_Argument_2_elements_charset_2_t "string")))
(assert (not (= Constructed_Argument_2_elements_charset_2_t "number")))
(assert (not (= Constructed_Argument_2_elements_charset_2_t "boolean")))
(assert (not (= Constructed_Argument_2_elements_charset_2_t "object")))
(assert (not (= Constructed_Argument_2_elements_charset_2_t "array_number")))
(assert (not (= Constructed_Argument_2_elements_charset_2_t "array_string")))
(assert (not (= Constructed_Argument_2_elements_charset_2_t "array_bool")))
(assert (not (= Constructed_Argument_2_elements_charset_2_t "null")))
(assert (not (= Constructed_Argument_2_elements_charset_3_t "string")))
(assert (not (= Constructed_Argument_2_elements_charset_3_t "number")))
(assert (not (= Constructed_Argument_2_elements_charset_3_t "boolean")))
(assert (not (= Constructed_Argument_2_elements_charset_3_t "object")))
(assert (not (= Constructed_Argument_2_elements_charset_3_t "array_number")))
(assert (not (= Constructed_Argument_2_elements_charset_3_t "array_string")))
(assert (not (= Constructed_Argument_2_elements_charset_3_t "array_bool")))
(assert (not (= Constructed_Argument_2_elements_charset_3_t "null")))
(assert (= Constructed_Argument_2_elements_allowDots_4_t "string"))
(assert (= Constructed_Argument_2_elements_allowDots_5_t "array_number"))
(assert (>= Constructed_Argument_2_elements_allowDots_5_Array_Length 0))
(assert (not (= Constructed_Argument_2_elements_allowPrototypes_6_t "string")))
(assert (not (= Constructed_Argument_2_elements_allowPrototypes_6_t "number")))
(assert (not (= Constructed_Argument_2_elements_allowPrototypes_6_t "boolean")))
(assert (not (= Constructed_Argument_2_elements_allowPrototypes_6_t "object")))
(assert (not (= Constructed_Argument_2_elements_allowPrototypes_6_t "array_number")))
(assert (not (= Constructed_Argument_2_elements_allowPrototypes_6_t "array_string")))
(assert (not (= Constructed_Argument_2_elements_allowPrototypes_6_t "array_bool")))
(assert (not (= Constructed_Argument_2_elements_allowPrototypes_6_t "null")))
(assert (not (= Constructed_Argument_2_elements_arrayLimit_7_t "string")))
(assert (not (= Constructed_Argument_2_elements_arrayLimit_7_t "number")))
(assert (not (= Constructed_Argument_2_elements_arrayLimit_7_t "boolean")))
(assert (not (= Constructed_Argument_2_elements_arrayLimit_7_t "object")))
(assert (not (= Constructed_Argument_2_elements_arrayLimit_7_t "array_number")))
(assert (not (= Constructed_Argument_2_elements_arrayLimit_7_t "array_string")))
(assert (not (= Constructed_Argument_2_elements_arrayLimit_7_t "array_bool")))
(assert (not (= Constructed_Argument_2_elements_arrayLimit_7_t "null")))
(assert (not (= Constructed_Argument_2_elements_charsetSentinel_8_t "string")))
(assert (= Constructed_Argument_2_elements_charsetSentinel_8_t "number"))

(check-sat)
